p cnf 528 624
10 -71 73 74 0
10 -71 73 -74 0
10 -71 -73 75 0
10 -71 -73 -75 0
2 20 17 76 0
2 20 17 -76 0
43 -28 77 78 0
43 -28 77 -78 0
43 -28 -77 79 0
43 -28 -77 -79 0
-31 -61 80 81 0
-31 -61 80 -81 0
-31 -61 -80 82 0
-31 -61 -80 -82 0
49 -39 83 84 0
49 -39 83 -84 0
49 -39 -83 85 0
49 -39 -83 -85 0
40 -66 86 87 0
40 -66 86 -87 0
40 -66 -86 88 0
40 -66 -86 -88 0
-67 -53 89 90 0
-67 -53 89 -90 0
-67 -53 -89 91 0
-67 -53 -89 -91 0
-58 22 92 93 0
-58 22 92 -93 0
-58 22 -92 94 0
-58 22 -92 -94 0
40 -5 95 96 0
40 -5 95 -96 0
40 -5 -95 97 0
40 -5 -95 -97 0
-66 42 98 99 0
-66 42 98 -99 0
-66 42 -98 100 0
-66 42 -98 -100 0
11 -9 101 102 0
11 -9 101 -102 0
11 -9 -101 103 0
11 -9 -101 -103 0
41 -20 104 105 0
41 -20 104 -105 0
41 -20 -104 106 0
41 -20 -104 -106 0
-18 -54 107 108 0
-18 -54 107 -108 0
-18 -54 -107 109 0
-18 -54 -107 -109 0
56 4 110 111 0
56 4 110 -111 0
56 4 -110 112 0
56 4 -110 -112 0
4 -71 113 114 0
4 -71 113 -114 0
4 -71 -113 115 0
4 -71 -113 -115 0
44 23 116 117 0
44 23 116 -117 0
44 23 -116 118 0
44 23 -116 -118 0
8 -1 119 120 0
8 -1 119 -120 0
8 -1 -119 121 0
8 -1 -119 -121 0
-45 -37 122 123 0
-45 -37 122 -123 0
-45 -37 -122 124 0
-45 -37 -122 -124 0
-29 -9 125 126 0
-29 -9 125 -126 0
-29 -9 -125 127 0
-29 -9 -125 -127 0
-25 26 128 129 0
-25 26 128 -129 0
-25 26 -128 130 0
-25 26 -128 -130 0
52 48 131 132 0
52 48 131 -132 0
52 48 -131 133 0
52 48 -131 -133 0
59 -9 134 135 0
59 -9 134 -135 0
59 -9 -134 136 0
59 -9 -134 -136 0
-16 23 137 138 0
-16 23 137 -138 0
-16 23 -137 139 0
-16 23 -137 -139 0
-18 -53 140 141 0
-18 -53 140 -141 0
-18 -53 -140 142 0
-18 -53 -140 -142 0
59 -31 143 144 0
59 -31 143 -144 0
59 -31 -143 145 0
59 -31 -143 -145 0
-32 52 146 147 0
-32 52 146 -147 0
-32 52 -146 148 0
-32 52 -146 -148 0
-58 41 149 150 0
-58 41 149 -150 0
-58 41 -149 151 0
-58 41 -149 -151 0
11 3 152 153 0
11 3 152 -153 0
11 3 -152 154 0
11 3 -152 -154 0
-54 -1 155 156 0
-54 -1 155 -156 0
-54 -1 -155 157 0
-54 -1 -155 -157 0
-31 3 158 159 0
-31 3 158 -159 0
-31 3 -158 160 0
-31 3 -158 -160 0
-62 -7 51 161 0
-62 -7 51 -161 0
-67 -14 162 163 0
-67 -14 162 -163 0
-67 -14 -162 164 0
-67 -14 -162 -164 0
-24 13 165 166 0
-24 13 165 -166 0
-24 13 -165 167 0
-24 13 -165 -167 0
-53 -1 168 169 0
-53 -1 168 -169 0
-53 -1 -168 170 0
-53 -1 -168 -170 0
62 34 171 172 0
62 34 171 -172 0
62 34 -171 173 0
62 34 -171 -173 0
-69 40 174 175 0
-69 40 174 -175 0
-69 40 -174 176 0
-69 40 -174 -176 0
-39 13 177 178 0
-39 13 177 -178 0
-39 13 -177 179 0
-39 13 -177 -179 0
-70 -58 180 181 0
-70 -58 180 -181 0
-70 -58 -180 182 0
-70 -58 -180 -182 0
-4 6 -72 183 0
-4 6 -72 -183 0
63 -35 184 185 0
63 -35 184 -185 0
63 -35 -184 186 0
63 -35 -184 -186 0
22 -71 187 188 0
22 -71 187 -188 0
22 -71 -187 189 0
22 -71 -187 -189 0
57 30 25 190 0
57 30 25 -190 0
41 4 191 192 0
41 4 191 -192 0
41 4 -191 193 0
41 4 -191 -193 0
34 43 194 195 0
34 43 194 -195 0
34 43 -194 196 0
34 43 -194 -196 0
-20 -70 197 198 0
-20 -70 197 -198 0
-20 -70 -197 199 0
-20 -70 -197 -199 0
71 60 68 200 0
71 60 68 -200 0
47 3 201 202 0
47 3 201 -202 0
47 3 -201 203 0
47 3 -201 -203 0
50 -17 204 205 0
50 -17 204 -205 0
50 -17 -204 206 0
50 -17 -204 -206 0
63 12 207 208 0
63 12 207 -208 0
63 12 -207 209 0
63 12 -207 -209 0
44 13 210 211 0
44 13 210 -211 0
44 13 -210 212 0
44 13 -210 -212 0
-33 -70 213 214 0
-33 -70 213 -214 0
-33 -70 -213 215 0
-33 -70 -213 -215 0
55 11 216 217 0
55 11 216 -217 0
55 11 -216 218 0
55 11 -216 -218 0
-68 -53 219 220 0
-68 -53 219 -220 0
-68 -53 -219 221 0
-68 -53 -219 -221 0
65 38 222 223 0
65 38 222 -223 0
65 38 -222 224 0
65 38 -222 -224 0
53 -22 66 225 0
53 -22 66 -225 0
19 -39 226 227 0
19 -39 226 -227 0
19 -39 -226 228 0
19 -39 -226 -228 0
7 48 229 230 0
7 48 229 -230 0
7 48 -229 231 0
7 48 -229 -231 0
56 -70 232 233 0
56 -70 232 -233 0
56 -70 -232 234 0
56 -70 -232 -234 0
9 39 35 235 0
9 39 35 -235 0
42 -69 236 237 0
42 -69 236 -237 0
42 -69 -236 238 0
42 -69 -236 -238 0
-5 -17 239 240 0
-5 -17 239 -240 0
-5 -17 -239 241 0
-5 -17 -239 -241 0
-31 11 242 243 0
-31 11 242 -243 0
-31 11 -242 244 0
-31 11 -242 -244 0
3 -57 245 246 0
3 -57 245 -246 0
3 -57 -245 247 0
3 -57 -245 -247 0
23 49 248 249 0
23 49 248 -249 0
23 49 -248 250 0
23 49 -248 -250 0
-71 -27 251 252 0
-71 -27 251 -252 0
-71 -27 -251 253 0
-71 -27 -251 -253 0
40 72 254 255 0
40 72 254 -255 0
40 72 -254 256 0
40 72 -254 -256 0
19 -27 257 258 0
19 -27 257 -258 0
19 -27 -257 259 0
19 -27 -257 -259 0
50 72 260 261 0
50 72 260 -261 0
50 72 -260 262 0
50 72 -260 -262 0
34 22 263 264 0
34 22 263 -264 0
34 22 -263 265 0
34 22 -263 -265 0
-57 -2 266 267 0
-57 -2 266 -267 0
-57 -2 -266 268 0
-57 -2 -266 -268 0
-41 54 69 269 0
-41 54 69 -269 0
-39 -28 270 271 0
-39 -28 270 -271 0
-39 -28 -270 272 0
-39 -28 -270 -272 0
-33 -16 273 274 0
-33 -16 273 -274 0
-33 -16 -273 275 0
-33 -16 -273 -275 0
38 50 276 277 0
38 50 276 -277 0
38 50 -276 278 0
38 50 -276 -278 0
-20 56 279 280 0
-20 56 279 -280 0
-20 56 -279 281 0
-20 56 -279 -281 0
33 -26 -55 282 0
33 -26 -55 -282 0
44 49 283 284 0
44 49 283 -284 0
44 49 -283 285 0
44 49 -283 -285 0
10 62 286 287 0
10 62 286 -287 0
10 62 -286 288 0
10 62 -286 -288 0
47 -9 289 290 0
47 -9 289 -290 0
47 -9 -289 291 0
47 -9 -289 -291 0
36 -25 292 293 0
36 -25 292 -293 0
36 -25 -292 294 0
36 -25 -292 -294 0
36 21 295 296 0
36 21 295 -296 0
36 21 -295 297 0
36 21 -295 -297 0
-34 -48 67 298 0
-34 -48 67 -298 0
-51 -14 299 300 0
-51 -14 299 -300 0
-51 -14 -299 301 0
-51 -14 -299 -301 0
31 -23 -65 302 0
31 -23 -65 -302 0
-66 -60 303 304 0
-66 -60 303 -304 0
-66 -60 -303 305 0
-66 -60 -303 -305 0
-61 -57 306 307 0
-61 -57 306 -307 0
-61 -57 -306 308 0
-61 -57 -306 -308 0
-25 -17 309 310 0
-25 -17 309 -310 0
-25 -17 -309 311 0
-25 -17 -309 -311 0
-51 -45 312 313 0
-51 -45 312 -313 0
-51 -45 -312 314 0
-51 -45 -312 -314 0
22 10 315 316 0
22 10 315 -316 0
22 10 -315 317 0
22 10 -315 -317 0
-45 47 318 319 0
-45 47 318 -319 0
-45 47 -318 320 0
-45 47 -318 -320 0
-6 -68 321 322 0
-6 -68 321 -322 0
-6 -68 -321 323 0
-6 -68 -321 -323 0
-51 -67 324 325 0
-51 -67 324 -325 0
-51 -67 -324 326 0
-51 -67 -324 -326 0
7 52 327 328 0
7 52 327 -328 0
7 52 -327 329 0
7 52 -327 -329 0
65 63 330 331 0
65 63 330 -331 0
65 63 -330 332 0
65 63 -330 -332 0
-12 37 -43 333 0
-12 37 -43 -333 0
-6 -54 334 335 0
-6 -54 334 -335 0
-6 -54 -334 336 0
-6 -54 -334 -336 0
-6 -15 337 338 0
-6 -15 337 -338 0
-6 -15 -337 339 0
-6 -15 -337 -339 0
10 41 340 341 0
10 41 340 -341 0
10 41 -340 342 0
10 41 -340 -342 0
-60 52 343 344 0
-60 52 343 -344 0
-60 52 -343 345 0
-60 52 -343 -345 0
64 65 346 347 0
64 65 346 -347 0
64 65 -346 348 0
64 65 -346 -348 0
48 12 349 350 0
48 12 349 -350 0
48 12 -349 351 0
48 12 -349 -351 0
36 65 352 353 0
36 65 352 -353 0
36 65 -352 354 0
36 65 -352 -354 0
-54 -2 355 356 0
-54 -2 355 -356 0
-54 -2 -355 357 0
-54 -2 -355 -357 0
-61 -15 358 359 0
-61 -15 358 -359 0
-61 -15 -358 360 0
-61 -15 -358 -360 0
32 -19 29 361 0
32 -19 29 -361 0
72 -60 362 363 0
72 -60 362 -363 0
72 -60 -362 364 0
72 -60 -362 -364 0
-64 -11 -49 365 0
-64 -11 -49 -365 0
46 21 366 367 0
46 21 366 -367 0
46 21 -366 368 0
46 21 -366 -368 0
42 7 369 370 0
42 7 369 -370 0
42 7 -369 371 0
42 7 -369 -371 0
62 -27 372 373 0
62 -27 372 -373 0
62 -27 -372 374 0
62 -27 -372 -374 0
-14 -29 375 376 0
-14 -29 375 -376 0
-14 -29 -375 377 0
-14 -29 -375 -377 0
-3 -44 -36 378 0
-3 -44 -36 -378 0
45 24 -46 379 0
45 24 -46 -379 0
-14 -68 380 381 0
-14 -68 380 -381 0
-14 -68 -380 382 0
-14 -68 -380 -382 0
42 -60 383 384 0
42 -60 383 -384 0
42 -60 -383 385 0
42 -60 -383 -385 0
-24 43 386 387 0
-24 43 386 -387 0
-24 43 -386 388 0
-24 43 -386 -388 0
59 -37 389 390 0
59 -37 389 -390 0
59 -37 -389 391 0
59 -37 -389 -391 0
21 -35 392 393 0
21 -35 392 -393 0
21 -35 -392 394 0
21 -35 -392 -394 0
8 -15 395 396 0
8 -15 395 -396 0
8 -15 -395 397 0
8 -15 -395 -397 0
26 64 398 399 0
26 64 398 -399 0
26 64 -398 400 0
26 64 -398 -400 0
59 47 401 402 0
59 47 401 -402 0
59 47 -401 403 0
59 47 -401 -403 0
-8 70 5 404 0
-8 70 5 -404 0
-28 23 405 406 0
-28 23 405 -406 0
-28 23 -405 407 0
-28 23 -405 -407 0
46 7 408 409 0
46 7 408 -409 0
46 7 -408 410 0
46 7 -408 -410 0
-27 34 411 412 0
-27 34 411 -412 0
-27 34 -411 413 0
-27 34 -411 -413 0
-32 12 414 415 0
-32 12 414 -415 0
-32 12 -414 416 0
-32 12 -414 -416 0
49 -33 417 418 0
49 -33 417 -418 0
49 -33 -417 419 0
49 -33 -417 -419 0
-2 8 420 421 0
-2 8 420 -421 0
-2 8 -420 422 0
-2 8 -420 -422 0
-50 -56 15 423 0
-50 -56 15 -423 0
-10 -42 18 424 0
-10 -42 18 -424 0
-38 61 16 425 0
-38 61 16 -425 0
-66 48 426 427 0
-66 48 426 -427 0
-66 48 -426 428 0
-66 48 -426 -428 0
-58 4 429 430 0
-58 4 429 -430 0
-58 4 -429 431 0
-58 4 -429 -431 0
55 -57 432 433 0
55 -57 432 -433 0
55 -57 -432 434 0
55 -57 -432 -434 0
-37 -67 435 436 0
-37 -67 435 -436 0
-37 -67 -435 437 0
-37 -67 -435 -437 0
72 -69 438 439 0
72 -69 438 -439 0
72 -69 -438 440 0
72 -69 -438 -440 0
-61 55 441 442 0
-61 55 441 -442 0
-61 55 -441 443 0
-61 55 -441 -443 0
36 64 444 445 0
36 64 444 -445 0
36 64 -444 446 0
36 64 -444 -446 0
-25 38 447 448 0
-25 38 447 -448 0
-25 38 -447 449 0
-25 38 -447 -449 0
-63 28 -59 450 0
-63 28 -59 -450 0
64 -35 451 452 0
64 -35 451 -452 0
64 -35 -451 453 0
64 -35 -451 -453 0
26 38 454 455 0
26 38 454 -455 0
26 38 -454 456 0
26 38 -454 -456 0
-28 13 457 458 0
-28 13 457 -458 0
-28 13 -457 459 0
-28 13 -457 -459 0
-69 -17 460 461 0
-69 -17 460 -461 0
-69 -17 -460 462 0
-69 -17 -460 -462 0
-37 -29 463 464 0
-37 -29 463 -464 0
-37 -29 -463 465 0
-37 -29 -463 -465 0
19 -24 466 467 0
19 -24 466 -467 0
19 -24 -466 468 0
19 -24 -466 -468 0
27 14 -52 469 0
27 14 -52 -469 0
-1 -6 470 471 0
-1 -6 470 -471 0
-1 -6 -470 472 0
-1 -6 -470 -472 0
-2 -15 473 474 0
-2 -15 473 -474 0
-2 -15 -473 475 0
-2 -15 -473 -475 0
12 46 476 477 0
12 46 476 -477 0
12 46 -476 478 0
12 46 -476 -478 0
55 8 479 480 0
55 8 479 -480 0
55 8 -479 481 0
55 8 -479 -481 0
-32 46 482 483 0
-32 46 482 -483 0
-32 46 -482 484 0
-32 46 -482 -484 0
-45 -29 485 486 0
-45 -29 485 -486 0
-45 -29 -485 487 0
-45 -29 -485 -487 0
58 1 -40 488 0
58 1 -40 -488 0
-30 -33 489 490 0
-30 -33 489 -490 0
-30 -33 -489 491 0
-30 -33 -489 -491 0
19 43 492 493 0
19 43 492 -493 0
19 43 -492 494 0
19 43 -492 -494 0
-24 62 495 496 0
-24 62 495 -496 0
-24 62 -495 497 0
-24 62 -495 -497 0
-30 -20 498 499 0
-30 -20 498 -499 0
-30 -20 -498 500 0
-30 -20 -498 -500 0
-5 50 501 502 0
-5 50 501 -502 0
-5 50 -501 503 0
-5 50 -501 -503 0
-51 -18 504 505 0
-51 -18 504 -505 0
-51 -18 -504 506 0
-51 -18 -504 -506 0
21 63 507 508 0
21 63 507 -508 0
21 63 -507 509 0
21 63 -507 -509 0
-47 -13 -21 510 0
-47 -13 -21 -510 0
-35 -32 511 512 0
-35 -32 511 -512 0
-35 -32 -511 513 0
-35 -32 -511 -513 0
56 -16 514 515 0
56 -16 514 -515 0
56 -16 -514 516 0
56 -16 -514 -516 0
-30 -16 517 518 0
-30 -16 517 -518 0
-30 -16 -517 519 0
-30 -16 -517 -519 0
-68 -18 520 521 0
-68 -18 520 -521 0
-68 -18 -520 522 0
-68 -18 -520 -522 0
-5 26 523 524 0
-5 26 523 -524 0
-5 26 -523 525 0
-5 26 -523 -525 0
44 -30 526 527 0
44 -30 526 -527 0
44 -30 -526 528 0
44 -30 -526 -528 0

